%pal  
nprocs 4  
end  

! B3LYP def2-SVP Opt Freq RIJCOSX TightSCF
%maxcore 4000 

* xyzfile {charge} {multiplicity} {xyz_file}  
